 ! --------------------------------------------------- CP Optimizer 22.1.1.0 --
 ! Maximization problem - 58 variables, 129 constraints
 ! TimeLimit            = 1800
 ! Workers              = 8
 ! LogVerbosity         = Terse
 ! Initial process time : 0.00s (0.00s extraction + 0.00s propagation)
 !  . Log search space  : 334.6 (before), 334.6 (after)
 !  . Memory usage      : 460.0 kB (before), 460.0 kB (after)
 ! Using parallel search with 8 workers.
 ! ----------------------------------------------------------------------------
 !          Best Branches  Non-fixed    W       Branch decision
                        0         58                 -
 + New bound is 14
 *             6       67  0.02s        3      (gap is 133.3%)
 *             7      712  0.02s        3      (gap is 100.0%)
 *             8      817  0.02s        3      (gap is 75.00%)
 *             9      722  0.02s        5      (gap is 55.56%)
 *            10     1532  0.04s        5      (gap is 40.00%)
 *            11     1543  0.04s        8      (gap is 27.27%)
              11     3452         55    2   F    43 != labels_4
 + New bound is 12 (gap is 9.09%)
              11    50505         55    2            -
 + New bound is 11 (gap is 0.00%)
 ! ----------------------------------------------------------------------------
 ! Search completed, 6 solutions found.
 ! Best objective         : 11 (optimal - effective tol. is 0)
 ! Best bound             : 11
 ! ----------------------------------------------------------------------------
 ! Number of branches     : 395090
 ! Number of fails        : 190655
 ! Total memory usage     : 13.2 MB (13.1 MB CP Optimizer + 0.0 MB Concert)
 ! Time spent in solve    : 0.60s (0.60s engine + 0.00s extraction)
 ! Search speed (br. / s) : 658483.3
 ! ----------------------------------------------------------------------------
Value Cyclic-Antibandwidth = 11
Labels: [57, 40, 8, 47, 15, 37, 26, 4, 44, 16, 54, 25, 43, 56, 50, 20, 10, 11, 36, 33, 6, 46, 5, 52, 38, 22, 49, 48, 2, 21, 1, 31, 13, 19, 17, 18, 29, 42, 41, 53, 39, 51, 32, 55, 14, 30, 7, 28, 23, 3, 24, 27, 35, 34, 45, 9, 12]
Solve time (s): 0.6
Memory usage (MB): 28.28125
